c --- [ banner ] -------------------------------------------------------------
c 
c CaDiCaL Radically Simplified CDCL SAT Solver
c Copyright (c) 2016-2021 A. Biere, M. Fleury, N. Froleyks
c 
c Version 1.5.2 a5f15211db36c3956764e18194dd5bd63bf3b5e6
c g++ (GCC) 9.3.0 -Wall -Wextra -O3 -DNDEBUG
c Fri Oct 21 01:27:37 EDT 2022 Linux gra-login3 3.10.0-1160.66.1.el7.x86_64 x86_64
c 
c --- [ limit ] --------------------------------------------------------------
c 
c setting conflict limit to 200000 conflicts (due to '200000')
c 
c --- [ parsing input ] ------------------------------------------------------
c 
c reading DIMACS file from '33.cubes3273.adj'
c opening file to read '33.cubes3273.adj'
c found 'p cnf 6160 1595472' header
c parsed 1595472 clauses in 17.17 seconds process time
c closing file '33.cubes3273.adj'
c after reading 1457566757 bytes 1390.0 MB
c 
c --- [ options ] ------------------------------------------------------------
c 
c all options are set to their default value
c 
c --- [ solving ] ------------------------------------------------------------
c 
c time measured in process time since initialization
c 
c  seconds    reductions  redundant   irredundant
c          MB     restarts       trail       variables
c            level   conflicts       glue         remaining
c 
c * 17.17 1381  0 0   0    0    0  0% 0 1595422 2379 39%
c { 18.32 1435  0 0   0    0    0  0% 0 1595422 2379 39%
c i 21.60 1492 206 0   9   72   64 26% 9 1595422 2376 39%
c i 22.12 1496 189 0  13   87   78 27% 18 1595422 2366 38%
c i 22.18 1497 185 0  13   89   79 27% 18 1595422 2365 38%
c i 22.76 1499 155 0  19  112   99 27% 18 1595422 2364 38%
c i 23.70 1507 133 0  26  145  127 27% 21 1595422 2363 38%
c i 23.71 1507 131 0  26  148  127 27% 21 1595422 2362 38%
c i 23.86 1507 127 0  29  159  135 27% 21 1595422 2361 38%
c i 24.24 1508 132 0  33  181  153 27% 28 1595422 2360 38%
c i 24.99 1509 118 0  49  242  201 28% 33 1595422 2359 38%
c i 25.26 1509 117 0  56  269  225 28% 38 1595422 2358 38%
c i 25.29 1509 117 0  57  273  227 28% 37 1595422 2357 38%
c - 28.94 1463 115 1  64  300  250 27% 37 211075 2357 38%
c i 29.21 1463 111 1  65  318  266 28% 37 211075 2356 38%
c i 29.35 1463 85 1  65  502  416 29% 34 211075 2355 38%
c i 29.40 1463 77 1  65  594  487 29% 34 211075 2354 38%
c i 29.91 1463 62 1  65  973  773 30% 31 211075 2353 38%
c i 30.07 1463 63 1  70  999  794 30% 31 211075 2352 38%
c i 30.09 1463 63 1  70 1000  794 30% 31 211075 2351 38%
c 
c  seconds    reductions  redundant   irredundant
c          MB     restarts       trail       variables
c            level   conflicts       glue         remaining
c 
c } 30.09 1463 63 1  70 1000  794 30% 31 211075 2351 38%
c [ 30.09 1463  0 1  70 1000  794  0% 0 211075 2351 38%
c O 30.09 1463  3 1  70 1002  796 15% 1 211075 2351 38%
c i 30.10 1463  2 1  70 1006  799 15% 1 211075 2318 38%
c i 30.10 1463  2 1  70 1007  799 15% 1 211075 2285 37%
c i 30.10 1463  2 1  70 1018  805 15% 1 211075 2268 37%
c - 31.07 1477 22 2  70 1098  739 30% 12 209672 2268 37%
c i 31.36 1477 27 2  70 1374  930 32% 19 209672 2267 37%
c i 31.37 1477 28 2  70 1432  971 32% 20 209672 2266 37%
c i 31.47 1477 27 2  70 1664 1122 32% 20 209672 2265 37%
c i 31.55 1477 27 2  70 1823 1237 32% 20 209672 2264 37%
c i 31.68 1477 26 2  71 2119 1419 32% 19 209672 2263 37%
c i 31.69 1477 26 2  71 2144 1438 32% 19 209672 2262 37%
c - 32.00 1453 25 3  71 2289 1093 32% 19 209656 2262 37%
c ] 32.55 1452 22 3  71 3000 1413 51% 18 209656 2262 37%
c { 32.55 1452 63 3  71 3000 1413 81% 31 209656 2262 37%
c F 32.67 1453 63 3  72 3004 1417 81% 31 209656 2262 37%
c i 33.03 1452 58 3  72 3179 1570 76% 30 209656 2261 37%
c i 33.06 1453 58 3  72 3186 1576 76% 30 209656 2260 37%
c i 33.08 1453 58 3  72 3196 1582 76% 30 209656 2256 37%
c 
c  seconds    reductions  redundant   irredundant
c          MB     restarts       trail       variables
c            level   conflicts       glue         remaining
c 
c i 33.61 1453 50 3  80 3618 1886 69% 27 209656 2255 37%
c i 33.68 1453 50 3  80 3665 1925 68% 27 209656 2254 37%
c i 33.71 1453 49 3  80 3703 1955 68% 27 209656 2253 37%
c - 34.14 1363 48 4  80 3874 1494 66% 26 209629 2253 37%
c i 34.48 1363 44 4  80 4225 1748 63% 26 209629 2252 37%
c i 34.54 1363 43 4  80 4321 1812 63% 25 209629 2251 37%
c i 34.58 1363 43 4  80 4358 1838 62% 25 209629 2250 37%
c i 34.72 1363 44 4  85 4383 1859 62% 25 209629 2247 36%
c i 34.74 1363 44 4  85 4388 1863 62% 25 209629 2246 36%
c i 35.08 1363 45 4  94 4432 1904 62% 26 209629 2245 36%
c i 35.28 1363 45 4 101 4468 1934 62% 26 209629 2244 36%
c i 35.71 1363 44 4 103 4785 2162 60% 25 209629 2243 36%
c d 36.17 1363 43 4 108 5000 2318 59% 25 209589 2237 36%
c 3 36.19 1363 43 4 108 5000 3427 59% 25 209589 2237 36%
c 2 36.23 1363 43 4 108 5000 3523 59% 25 209576 2237 36%
c p 41.03 1363 43 4 108 5000 7128 59% 25 209576 2165 35%
c d 41.38 1363 43 4 108 5000 6646 59% 25 209363 2163 35%
c - 42.14 1363 37 5 108 5856 2126 57% 22 209363 2163 35%
c # 42.32 1363 36 5 108 6006 2221 57% 22 209363 2163 35%
c } 43.37 1363 33 5 108 7003 2980 55% 21 209363 2163 35%
c 
c  seconds    reductions  redundant   irredundant
c          MB     restarts       trail       variables
c            level   conflicts       glue         remaining
c 
c [ 43.37 1363 22 5 108 7003 2980 51% 18 209363 2163 35%
c - 44.42 1363 24 6 109 8233 2676 49% 19 209363 2163 35%
c I 45.98 1363 22 6 110 10008 3794 49% 18 209363 2163 35%
c - 47.11 1363 26 7 111 11006 3265 49% 21 209363 2163 35%
c - 49.93 1363 29 8 113 14181 3691 49% 24 209363 2163 35%
c 2 50.58 1363 30 8 113 15002 5489 49% 25 209361 2163 35%
c p 52.04 1363 30 8 113 15002 8608 49% 25 209361 2163 35%
c ] 52.13 1363 30 8 113 15003 8609 49% 25 209361 2163 35%
c { 52.13 1363 33 8 113 15003 8609 55% 21 209361 2163 35%
c B 52.26 1363 33 8 115 15013 8617 55% 21 209361 2163 35%
c } 53.09 1363 30 8 132 16613 9650 53% 19 209361 2163 35%
c 1 53.09 1363 30 8 132 16613 9650 53% 19 209361 2163 35%
c 
c --- [ writing output ] -----------------------------------------------------
c 
c writing simplified CNF to DIMACS file 'simp/33.cubes3273.adj.simp1'
c * 53.09 1363 30 8 132 16613 9650 53% 19 209361 2163 35%
c opening file to write 'simp/33.cubes3273.adj.simp1'
c writing 'p cnf 6160 209361' header
c closing file 'simp/33.cubes3273.adj.simp1'
c after writing 93729003 bytes 89.4 MB
c wrote 209361 clauses in 0.58 seconds process time
c 
c --- [ writing extension ] --------------------------------------------------
c 
c writing extension stack to 'simp/33.cubes3273.adj.ext1'
c opening file to write 'simp/33.cubes3273.adj.ext1'
c closing file 'simp/33.cubes3273.adj.ext1'
c after writing 12822 bytes 0.0 MB
c wrote 861 witnesses in 0.00 seconds process time
c 
c --- [ result ] -------------------------------------------------------------
c 
s SATISFIABLE
c 
c --- [ run-time profiling ] -------------------------------------------------
c 
c process time taken by individual solving procedures
c (percentage relative to process time for solving)
c 
c        28.83   80.24% search
c        17.98   50.04% unstable
c        17.17   47.78% parse
c         9.70   26.99% stable
c         7.10   19.76% simplify
c         6.26   17.44% probe
c         1.15    3.21% lucky
c         0.06    0.16% ternary
c   =================================
c        35.93   66.94% solve
c 
c last line shows process time for solving
c (percentage relative to total process time)
c 
c --- [ statistics ] ---------------------------------------------------------
c 
c chronological:              3136        18.88 %  of conflicts
c conflicts:                 16613       462.42    per second
c decisions:                 32695       910.06    per second
c fixed:                       845        13.72 %  of all variables
c learned:                   16278        97.98 %  per conflict
c learned_lits:            2828146       100.00 %  learned literals
c minimized:                     0         0.00 %  learned literals
c shrunken:                1859968        65.77 %  learned literals
c minishrunken:             182384         6.45 %  learned literals
c propagations:            2289315         0.06 M  per second
c reduced:                    5989        36.05 %  per conflict
c rephased:                      5      3322.60    interval
c restarts:                    132       125.86    interval
c stabilizing:                   2        60.19 %  of conflicts
c substituted:                   8         0.13 %  of all variables
c subsumed:                   4971         0.15 %  of all clauses
c ternary:                    2453         0.67 %  of resolved
c weakened:                     16         2.00    average size
c 
c seconds are measured in process time for solving
c 
c --- [ resources ] ----------------------------------------------------------
c 
c total process time since initialization:        53.67    seconds
c total real time since initialization:           53.95    seconds
c maximum resident set size of process:         1569.46    MB
c 
c --- [ shutting down ] ------------------------------------------------------
c 
c exit 10
WARNING! DIMACS header mismatch: wrong number of variables.
============================[ Problem Statistics ]=============================
|                                                                             |
|  Number of variables:          6120                                         |
|  Number of clauses:          209361                                         |
|  Parse time:                   1.40 s                                       |
|  Simplification time:          0.03 s                                       |
|                                                                             |
============================[ Search Statistics ]====================================================
| Conflicts |          ORIGINAL         |          LEARNT          | Num Sols |      SUBGRAPHS      |
|           |    Vars  Clauses Literals |    Limit  Clauses Lit/Cl |          | Canonical Noncanon. |
=====================================================================================================
|       101 |    6026   209362 20206127 |     2000      101    171 |        0 |        21         1 |
|       268 |    6026   209379 20206439 |     2000      268    131 |        0 |        35        18 |
|       493 |    6026   209379 20206439 |     2000      493    120 |        0 |        39        18 |
|       911 |    6026   209460 20208114 |     2000      911     99 |        0 |       122        99 |
|      1583 |    6026   209626 20210400 |     2000     1583     84 |        0 |       168       265 |
|      2356 |    6026   209640 20210622 |     3602     1358     49 |        0 |       186       279 |
|      3501 |    6026   209646 20210713 |     3602     2503     68 |        0 |       197       285 |
|      5296 |    6026   209733 20212291 |     5003     2499     51 |        0 |       222       372 |
|      8215 |    6026   210090 20217281 |     6307     2922     33 |        0 |       405       729 |
|     14012 |    6026   212043 20246949 |     7557     5569     41 |        0 |      1046      2682 |
|     24699 |    6026   216964 20310105 |     9997     8096     32 |        0 |      2691      7603 |
|     33875 |    6026   217491 20319094 |    12404     6679     23 |        0 |      2853      8130 |
|     47931 |    6026   218573 20332905 |    14805     7736     20 |        0 |      3142      9212 |
|     67632 |    6026   218813 20337953 |    17209    12041     43 |        0 |      3230      9452 |
|     99000 |    6015   220989 20368084 |    20822    15822     45 |        0 |      3881     11628 |
|    149052 |    6015   227252 20456911 |    25618    20670     39 |        0 |      5681     17891 |
|    218645 |    6015   230535 20502597 |    31550    20195     34 |        0 |      6958     21800 |
|    324894 |    5969   238257 20593287 |    38820    22713     25 |        0 |      9250     29523 |
=====================================================================================================
Number of solutions   : 0
Canonical subgraphs   : 9591           (5 /sec)
          order  3    : 1              (200000 /sec)
          order  4    : 1              (500000 /sec)
          order  5    : 1              (200000 /sec)
          order  6    : 1              (50000 /sec)
          order  7    : 1              (7937 /sec)
          order  8    : 2              (1258 /sec)
          order  9    : 6              (289 /sec)
          order 10    : 14             (60 /sec)
          order 11    : 55             (17 /sec)
          order 12    : 200            (6 /sec)
          order 13    : 1373           (6 /sec)
          order 14    : 4309           (6 /sec)
          order 15    : 1013           (6 /sec)
          order 16    : 2265           (4 /sec)
          order 17    : 271            (3 /sec)
          order 18    : 65             (4 /sec)
          order 19    : 13             (5 /sec)
          order 20    : 0              (-nan /sec)
          order 21    : 0              (-nan /sec)
          order 22    : 0              (-nan /sec)
Noncanonical subgraphs: 30780          (169 /sec)
          order  3    : 0              (-nan /sec)
          order  4    : 0              (-nan /sec)
          order  5    : 0              (-nan /sec)
          order  6    : 0              (-nan /sec)
          order  7    : 0              (-nan /sec)
          order  8    : 0              (-nan /sec)
          order  9    : 0              (-nan /sec)
          order 10    : 0              (-nan /sec)
          order 11    : 0              (-nan /sec)
          order 12    : 0              (-nan /sec)
          order 13    : 4335           (8287 /sec)
          order 14    : 8224           (2489 /sec)
          order 15    : 13389          (317 /sec)
          order 16    : 1190           (371 /sec)
          order 17    : 3542           (27 /sec)
          order 18    : 94             (29 /sec)
          order 19    : 6              (21 /sec)
          order 20    : 0              (-nan /sec)
          order 21    : 0              (-nan /sec)
Canonicity checking   : 1792.01 s
Noncanonicity checking: 181.851 s
Total canonicity time : 1973.86 s
database reductions   : 31
restarts              : 858
conflicts             : 357991         (168 /sec)
decisions             : 529158         (0.00 % random) (249 /sec)
propagations          : 36395124       (17105 /sec)
conflict literals     : 31960234       (52.24 % deleted)
actual reward         : 0.122385
Memory used           : 288.00 MB
CPU time              : 2127.81 s

UNSATISFIABLE
